
Gurobi 9.1.2 (linux64) logging started Wed Nov 24 10:27:13 2021

Changed value of parameter LogFile to lemke_square_v-(4, 1).log-s20-l10.log
   Prev:   Default: 
Changed value of parameter Threads to 32
   Prev: 0  Min: 0  Max: 1024  Default: 0
Changed value of parameter TimeLimit to 3600.0
   Prev: inf  Min: 0.0  Max: inf  Default: inf
Changed value of parameter MIPGap to 0.4
   Prev: 0.0001  Min: 0.0  Max: inf  Default: 0.0001
Warning: variable name "X[(7, 4),(7, 3)]" has a space
Warning: constraint name "flow-constr-t0-v(3, 0)" has a space
Warning: to let Gurobi read it back, use rlp format
Gurobi Optimizer version 9.1.2 build v9.1.2rc0 (linux64)
Thread count: 16 physical cores, 32 logical processors, using up to 32 threads
Optimize a model with 6053 rows, 5440 columns and 20770 nonzeros
Model fingerprint: 0xa133b381
Variable types: 0 continuous, 5440 integer (4800 binary)
Coefficient statistics:
  Matrix range     [1e+00, 1e+03]
  Objective range  [1e-01, 1e-01]
  Bounds range     [1e+00, 5e+02]
  RHS range        [1e+00, 1e+03]
Presolve removed 357 rows and 370 columns
Presolve time: 0.04s
Presolved: 5696 rows, 5070 columns, 18990 nonzeros
Variable types: 0 continuous, 5070 integer (4430 binary)

Root relaxation: objective 6.400000e+01, 129 iterations, 0.00 seconds

    Nodes    |    Current Node    |     Objective Bounds      |     Work
 Expl Unexpl |  Obj  Depth IntInf | Incumbent    BestBd   Gap | It/Node Time

     0     0   64.00000    0   44          -   64.00000      -     -    0s
     0     0   64.00000    0   67          -   64.00000      -     -    0s
     0     0   64.00000    0   67          -   64.00000      -     -    0s
     0     0   64.00000    0   54          -   64.00000      -     -    0s
     0     0   64.00000    0   54          -   64.00000      -     -    0s
     0     0   64.00000    0   50          -   64.00000      -     -    0s
H    0     0                    2756.8000000   64.00000  97.7%     -    0s
     0     0   64.00000    0   50 2756.80000   64.00000  97.7%     -    0s
H    0     0                     128.4000000   64.00000  50.2%     -    0s
     0     2   64.00000    0   46  128.40000   64.00000  50.2%     -    0s
H   31    64                     123.0000000   64.00000  48.0%  64.1    1s
H   49    64                     121.7000000   64.00000  47.4%  60.0    1s
H   63    96                      98.0000000   64.00000  34.7%  58.1    2s
H   64    96                      97.0000000   64.00000  34.0%  58.0    2s
H   66    96                      96.6000000   64.00000  33.7%  57.5    2s
H   69    96                      96.1000000   64.00000  33.4%  57.4    2s
H   73    96                      95.6000000   64.00000  33.1%  57.0    2s

Cutting planes:
  Gomory: 9
  Cover: 123
  Implied bound: 162
  Clique: 9
  MIR: 36
  StrongCG: 1
  Flow cover: 21
  RLT: 12
  Relax-and-lift: 23

Explored 95 nodes (7345 simplex iterations) in 2.15 seconds
Thread count was 32 (of 32 available processors)

Solution count 9: 95.6 96.1 96.6 ... 2756.8

Optimal solution found (tolerance 4.00e-01)
Best objective 9.560000000000e+01, best bound 6.400000000000e+01, gap 33.0544%

Gurobi 9.1.2 (linux64) logging started Wed Nov 24 10:32:44 2021

Changed value of parameter LogFile to lemke_square_v-(4, 1).log-s20-l10.log
   Prev:   Default: 
Changed value of parameter Threads to 32
   Prev: 0  Min: 0  Max: 1024  Default: 0
Changed value of parameter TimeLimit to 3600.0
   Prev: inf  Min: 0.0  Max: inf  Default: inf
Changed value of parameter MIPGap to 0.4
   Prev: 0.0001  Min: 0.0  Max: inf  Default: 0.0001
Warning: variable name "X[(7, 4),(7, 3)]" has a space
Warning: constraint name "flow-constr-t0-v(3, 0)" has a space
Warning: to let Gurobi read it back, use rlp format
Gurobi Optimizer version 9.1.2 build v9.1.2rc0 (linux64)
Thread count: 16 physical cores, 32 logical processors, using up to 32 threads
Optimize a model with 6053 rows, 5440 columns and 20770 nonzeros
Model fingerprint: 0xa133b381
Variable types: 0 continuous, 5440 integer (4800 binary)
Coefficient statistics:
  Matrix range     [1e+00, 1e+03]
  Objective range  [1e-01, 1e-01]
  Bounds range     [1e+00, 5e+02]
  RHS range        [1e+00, 1e+03]
Presolve removed 357 rows and 370 columns
Presolve time: 0.04s
Presolved: 5696 rows, 5070 columns, 18990 nonzeros
Variable types: 0 continuous, 5070 integer (4430 binary)

Root relaxation: objective 6.400000e+01, 129 iterations, 0.00 seconds

    Nodes    |    Current Node    |     Objective Bounds      |     Work
 Expl Unexpl |  Obj  Depth IntInf | Incumbent    BestBd   Gap | It/Node Time

     0     0   64.00000    0   44          -   64.00000      -     -    0s
     0     0   64.00000    0   67          -   64.00000      -     -    0s
     0     0   64.00000    0   67          -   64.00000      -     -    0s
     0     0   64.00000    0   54          -   64.00000      -     -    0s
     0     0   64.00000    0   54          -   64.00000      -     -    0s
     0     0   64.00000    0   50          -   64.00000      -     -    0s
H    0     0                    2756.8000000   64.00000  97.7%     -    0s
     0     0   64.00000    0   50 2756.80000   64.00000  97.7%     -    0s
H    0     0                     128.4000000   64.00000  50.2%     -    0s
     0     2   64.00000    0   46  128.40000   64.00000  50.2%     -    0s
H   31    64                     123.0000000   64.00000  48.0%  64.1    1s
H   49    64                     121.7000000   64.00000  47.4%  60.0    1s
H   63    96                      98.0000000   64.00000  34.7%  58.1    2s
H   64    96                      97.0000000   64.00000  34.0%  58.0    2s
H   66    96                      96.6000000   64.00000  33.7%  57.5    2s
H   69    96                      96.1000000   64.00000  33.4%  57.4    2s
H   73    96                      95.6000000   64.00000  33.1%  57.0    2s

Cutting planes:
  Gomory: 9
  Cover: 123
  Implied bound: 162
  Clique: 9
  MIR: 36
  StrongCG: 1
  Flow cover: 21
  RLT: 12
  Relax-and-lift: 23

Explored 95 nodes (7345 simplex iterations) in 2.11 seconds
Thread count was 32 (of 32 available processors)

Solution count 9: 95.6 96.1 96.6 ... 2756.8

Optimal solution found (tolerance 4.00e-01)
Best objective 9.560000000000e+01, best bound 6.400000000000e+01, gap 33.0544%

Gurobi 9.1.2 (linux64) logging started Wed Nov 24 12:42:15 2021

Changed value of parameter LogFile to lemke_square_v-(4, 1).log-s20-l10.log
   Prev:   Default: 
Changed value of parameter Threads to 32
   Prev: 0  Min: 0  Max: 1024  Default: 0
Changed value of parameter TimeLimit to 3600.0
   Prev: inf  Min: 0.0  Max: inf  Default: inf
Changed value of parameter MIPGap to 0.3
   Prev: 0.0001  Min: 0.0  Max: inf  Default: 0.0001
Warning: variable name "X[(7, 4),(7, 3)]" has a space
Warning: constraint name "flow-constr-t0-v(3, 0)" has a space
Warning: to let Gurobi read it back, use rlp format
Gurobi Optimizer version 9.1.2 build v9.1.2rc0 (linux64)
Thread count: 16 physical cores, 32 logical processors, using up to 32 threads
Optimize a model with 6053 rows, 5440 columns and 20770 nonzeros
Model fingerprint: 0xa133b381
Variable types: 0 continuous, 5440 integer (4800 binary)
Coefficient statistics:
  Matrix range     [1e+00, 1e+03]
  Objective range  [1e-01, 1e-01]
  Bounds range     [1e+00, 5e+02]
  RHS range        [1e+00, 1e+03]
Presolve removed 357 rows and 370 columns
Presolve time: 0.09s
Presolved: 5696 rows, 5070 columns, 18990 nonzeros
Variable types: 0 continuous, 5070 integer (4430 binary)

Root relaxation: objective 6.400000e+01, 129 iterations, 0.00 seconds

    Nodes    |    Current Node    |     Objective Bounds      |     Work
 Expl Unexpl |  Obj  Depth IntInf | Incumbent    BestBd   Gap | It/Node Time

     0     0   64.00000    0   44          -   64.00000      -     -    0s
     0     0   64.00000    0   67          -   64.00000      -     -    0s
     0     0   64.00000    0   67          -   64.00000      -     -    0s
     0     0   64.00000    0   54          -   64.00000      -     -    0s
     0     0   64.00000    0   54          -   64.00000      -     -    0s
     0     0   64.00000    0   50          -   64.00000      -     -    0s
H    0     0                    2756.8000000   64.00000  97.7%     -    0s
     0     0   64.00000    0   50 2756.80000   64.00000  97.7%     -    0s
H    0     0                     128.4000000   64.00000  50.2%     -    1s
     0     2   64.00000    0   46  128.40000   64.00000  50.2%     -    1s
H   31    64                     123.0000000   64.00000  48.0%  64.1    1s
H   49    64                     121.7000000   64.00000  47.4%  60.0    1s
H   63    96                      98.0000000   64.00000  34.7%  58.1    2s
H   64    96                      97.0000000   64.00000  34.0%  58.0    2s
H   66    96                      96.6000000   64.00000  33.7%  57.5    2s
H   69    96                      96.1000000   64.00000  33.4%  57.4    2s
H   73    96                      95.6000000   64.00000  33.1%  57.0    2s
H   95   128                      93.1000000   64.00000  31.3%  56.2    4s
H   96   128                      86.9000000   64.00000  26.4%  55.6    4s
H  102   128                      86.0000000   64.00000  25.6%  54.5    4s

Cutting planes:
  Gomory: 9
  Cover: 123
  Implied bound: 162
  Clique: 9
  MIR: 36
  StrongCG: 1
  Flow cover: 21
  RLT: 12
  Relax-and-lift: 23

Explored 127 nodes (7649 simplex iterations) in 4.54 seconds
Thread count was 32 (of 32 available processors)

Solution count 10: 86 86.9 93.1 ... 123

Optimal solution found (tolerance 3.00e-01)
Best objective 8.600000000000e+01, best bound 6.400000000000e+01, gap 25.5814%
